1269
1969
131
1374
1643
1863
1982
904
1692
1311
1562
167
246
195
1604
318
2146
2141
1309
166
264
892
1122
438
2061
912
1085
1648
1761
985
938
142
231
1135
320
1955
1565
2032
415
74
655
72
1860
1774
1451
1234
847
274
497
243
